0 0 0 0
0 1 0 0
0 2 0 0
0 3 0 0
0 4 0 11
0 5 0 4
0 6 0 5
0 7 0 13
0 8 0 21
0 9 0 12
0 10 0 27
0 11 0 5
0 12 0 54
0 13 0 9
0 14 0 11
0 15 0 22
0 16 0 23
0 17 0 33
0 18 0 32
0 19 0 42
0 20 0 33
0 21 0 23
0 22 0 38
0 23 0 2
0 24 0 29
0 25 0 4
0 26 0 39
0 27 0 43
0 28 0 21
0 29 0 46
0 30 0 32
0 31 0 19
0 32 0 19
0 33 0 53
0 34 0 43
0 35 0 18
0 36 0 39
0 37 0 37
0 38 0 31
0 39 0 45
0 40 0 41
0 41 0 42
0 42 0 41
0 43 0 11
0 44 0 51
0 45 0 22
0 46 0 22
0 47 0 61
0 48 0 43
0 49 0 54
0 50 0 51
0 51 0 42
0 52 0 50
0 53 0 33
0 54 0 50
0 55 0 62
0 56 0 50
0 57 0 27
0 58 0 12
0 59 0 72
0 60 0 52
0 61 0 49
0 62 0 53
0 63 0 76
0 64 0 66
0 65 0 56
0 66 0 53
0 67 0 59
0 68 0 53
0 69 0 62
0 70 0 75
0 71 0 66
0 72 0 61
0 73 0 66
0 74 0 52
0 75 0 58
0 76 0 57
0 77 0 60
0 78 0 68
0 79 0 71
0 80 0 62
0 81 0 78
0 82 0 76
0 83 0 56
0 84 0 77
0 85 0 64
0 86 0 61
0 87 0 70
0 88 0 87
0 89 0 71
0 90 0 68
0 91 0 88
0 92 0 90
0 93 0 69
0 94 0 76
0 95 0 85
0 96 0 79
0 97 0 84
0 98 0 75
0 99 0 86
0 100 0 86
0 101 0 97
0 102 0 69
0 103 0 86
0 104 0 90
0 105 0 98
0 106 0 90
0 107 0 94
0 108 0 96
0 109 0 51
0 110 0 83
0 111 0 93
0 112 0 90
0 113 0 97
0 114 0 99
0 115 0 99
0 116 0 101
0 117 0 103
0 118 0 105
0 119 0 104
0 120 0 99
0 121 0 113
